!-------------------------------------------------------------
 $CONTRL SCFTYP=RHF RUNTYP=ENERGY UNITS=BOHR MAXIT=30 
         COORD=ZMT  ISPHER=1                          $END
!-------------------------------------------------------------
 $SCF    DIRSCF=.True.                                $END
!-------------------------------------------------------------
 $BASIS  GBASIS=M2H      EXTFIL=.TRUE.                $END
!-------------------------------------------------------------
 $GUESS  GUESS=HUCKEL                                 $END
!-------------------------------------------------------------
 $SYSTEM MWORDS=500                                   $END
!-------------------------------------------------------------
 $DATA  
 H2...RHF
 C1
 H
 H 1  CRD

 CRD=1.40
 $END
!-------------------------------------------------------------
