!-------------------------------------------------------------
 $CONTRL SCFTYP=RHF RUNTYP=ENERGY UNITS=BOHR MAXIT=30 
         COORD=ZMT  ISPHER=1      NADPOL=.TRUE.       $END
!-------------------------------------------------------------
 $NADPOL XIE=0.0
         YIE=0.0       
         ZIE=0.5     
         QIE=-1.0   ERDEXP=1.40   ERD=1.40   CRD=1.40     
         IEHF=1     IFIN=100      IDEL=2
         LEMIN=0    LEMAX=100                         $END
!-------------------------------------------------------------
 $SCF    DIRSCF=.True.                                $END
!-------------------------------------------------------------
 $BASIS  GBASIS=M2H      EXTFIL=.TRUE.                $END
!-------------------------------------------------------------
 $GUESS  GUESS=MOREAD NORB=26                         $END
!-------------------------------------------------------------
 $SYSTEM MWORDS=500                                   $END
!-------------------------------------------------------------
 $DATA  
 H2...RHF
 C1
 H
 H 1  CRD

 CRD=1.40
 $END
!-------------------------------------------------------------
